
Gurobi 6.5.2 (linux64) logging started Mon Aug 29 10:57:58 2016

Optimize a model with 201 rows, 1585 columns and 4261 nonzeros
Coefficient statistics:
  Matrix range    [1e+00, 2e+00]
  Objective range [1e+00, 1e+02]
  Bounds range    [1e+00, 1e+00]
  RHS range       [1e+00, 1e+00]
Found heuristic solution: objective 1033
Presolve removed 49 rows and 1 columns
Presolve time: 0.01s
Presolved: 152 rows, 1584 columns, 3638 nonzeros
Variable types: 0 continuous, 1584 integer (1584 binary)

Root relaxation: objective 4.309167e+02, 110 iterations, 0.00 seconds

    Nodes    |    Current Node    |     Objective Bounds      |     Work
 Expl Unexpl |  Obj  Depth IntInf | Incumbent    BestBd   Gap | It/Node Time

     0     0  430.91667    0   39 1033.00000  430.91667  58.3%     -    0s
H    0     0                     726.0000000  430.91667  40.6%     -    0s
H    0     0                     686.0000000  430.91667  37.2%     -    0s
     0     0  482.13070    0   63  686.00000  482.13070  29.7%     -    0s
     0     0  507.44356    0   82  686.00000  507.44356  26.0%     -    0s
     0     0  508.21815    0   85  686.00000  508.21815  25.9%     -    0s
     0     0  518.33850    0  103  686.00000  518.33850  24.4%     -    0s
     0     0  519.57440    0  104  686.00000  519.57440  24.3%     -    0s
     0     0  528.52938    0  108  686.00000  528.52938  23.0%     -    0s
     0     0  529.48786    0  106  686.00000  529.48786  22.8%     -    0s
H    0     0                     672.0000000  529.48786  21.2%     -    0s
     0     0  533.53300    0  111  672.00000  533.53300  20.6%     -    0s
     0     0  535.65027    0  136  672.00000  535.65027  20.3%     -    0s
     0     0  536.36215    0  126  672.00000  536.36215  20.2%     -    0s
     0     0  536.36215    0  121  672.00000  536.36215  20.2%     -    0s
H    0     2                     612.0000000  536.36215  12.4%     -    0s
     0     2  536.36215    0  121  612.00000  536.36215  12.4%     -    0s
*  350   301              30     608.0000000  546.43333  10.1%  10.7    0s
H  938   312                     583.0000000  558.98789  4.12%  10.6    0s
H 1110   324                     582.0000000  572.13343  1.70%  11.9    2s

Cutting planes:
  Gomory: 17
  Cover: 110
  Clique: 3
  MIR: 3
  Flow cover: 15
  Zero half: 27

Explored 1154 nodes (15951 simplex iterations) in 3.35 seconds
Thread count was 8 (of 8 available processors)

Optimal solution found (tolerance 1.00e-04)
Best objective 5.820000000000e+02, best bound 5.820000000000e+02, gap 0.0%
